p cnf 233 568
1 0
13 -14 0
-13 14 0
15 -16 0
-15 16 0
12 -13 0
12 -15 0
-12 13 15 0
17 -18 0
-17 18 0
11 -12 0
11 -17 0
-11 12 17 0
-20 12 0
20 -12 0
21 18 0
-21 -18 0
19 -20 0
19 -21 0
-19 20 21 0
-10 11 0
-10 19 0
10 -11 -19 0
24 -14 0
-24 14 0
25 16 0
-25 -16 0
23 -24 0
23 -25 0
-23 24 25 0
26 -18 0
-26 18 0
22 -23 0
22 -26 0
-22 23 26 0
-9 10 0
-9 22 0
9 -10 -22 0
-28 23 0
28 -23 0
29 18 0
-29 -18 0
27 -28 0
27 -29 0
-27 28 29 0
-8 9 0
-8 27 0
8 -9 -27 0
32 14 0
-32 -14 0
33 -16 0
-33 16 0
31 -32 0
31 -33 0
-31 32 33 0
34 -18 0
-34 18 0
30 -31 0
30 -34 0
-30 31 34 0
-7 8 0
-7 30 0
7 -8 -30 0
-36 31 0
36 -31 0
37 18 0
-37 -18 0
35 -36 0
35 -37 0
-35 36 37 0
-6 7 0
-6 35 0
6 -7 -35 0
40 14 0
-40 -14 0
41 16 0
-41 -16 0
39 -40 0
39 -41 0
-39 40 41 0
42 -18 0
-42 18 0
38 -39 0
38 -42 0
-38 39 42 0
-5 6 0
-5 38 0
5 -6 -38 0
-43 38 0
43 -38 0
-4 5 0
-4 43 0
4 -5 -43 0
54 -55 0
-54 55 0
56 -57 0
-56 57 0
53 -54 0
53 -56 0
-53 54 56 0
58 -59 0
-58 59 0
52 -53 0
52 -58 0
-52 53 58 0
-61 53 0
61 -53 0
62 59 0
-62 -59 0
60 -61 0
60 -62 0
-60 61 62 0
-51 52 0
-51 60 0
51 -52 -60 0
65 -55 0
-65 55 0
66 57 0
-66 -57 0
64 -65 0
64 -66 0
-64 65 66 0
67 -59 0
-67 59 0
63 -64 0
63 -67 0
-63 64 67 0
-50 51 0
-50 63 0
50 -51 -63 0
-69 64 0
69 -64 0
70 59 0
-70 -59 0
68 -69 0
68 -70 0
-68 69 70 0
-49 50 0
-49 68 0
49 -50 -68 0
73 55 0
-73 -55 0
74 -57 0
-74 57 0
72 -73 0
72 -74 0
-72 73 74 0
75 -59 0
-75 59 0
71 -72 0
71 -75 0
-71 72 75 0
-48 49 0
-48 71 0
48 -49 -71 0
-77 72 0
77 -72 0
78 59 0
-78 -59 0
76 -77 0
76 -78 0
-76 77 78 0
-47 48 0
-47 76 0
47 -48 -76 0
81 55 0
-81 -55 0
82 57 0
-82 -57 0
80 -81 0
80 -82 0
-80 81 82 0
83 -59 0
-83 59 0
79 -80 0
79 -83 0
-79 80 83 0
-46 47 0
-46 79 0
46 -47 -79 0
-84 79 0
84 -79 0
-45 46 0
-45 84 0
45 -46 -84 0
-85 38 0
85 -38 0
-44 45 0
-44 85 0
44 -45 -85 0
3 -4 0
3 -44 0
-3 4 44 0
-90 38 0
90 -38 0
-91 79 0
91 -79 0
-89 90 0
-89 91 0
89 -90 -91 0
-92 3 0
92 -3 0
88 -89 0
88 -92 0
-88 89 92 0
103 -55 0
-103 55 0
104 57 0
-104 -57 0
-102 103 0
-102 104 0
102 -103 -104 0
105 -59 0
-105 59 0
-101 102 0
-101 105 0
101 -102 -105 0
108 -14 0
-108 14 0
109 16 0
-109 -16 0
-107 108 0
-107 109 0
107 -108 -109 0
110 18 0
-110 -18 0
-106 107 0
-106 110 0
106 -107 -110 0
-100 101 0
-100 106 0
100 -101 -106 0
-113 102 0
113 -102 0
114 59 0
-114 -59 0
-112 113 0
-112 114 0
112 -113 -114 0
-116 107 0
116 -107 0
117 -18 0
-117 18 0
-115 116 0
-115 117 0
115 -116 -117 0
-111 112 0
-111 115 0
111 -112 -115 0
99 -100 0
99 -111 0
-99 100 111 0
-119 112 0
119 -112 0
122 -14 0
-122 14 0
123 -16 0
-123 16 0
-121 122 0
-121 123 0
121 -122 -123 0
124 18 0
-124 -18 0
-120 121 0
-120 124 0
120 -121 -124 0
-118 119 0
-118 120 0
118 -119 -120 0
98 -99 0
98 -118 0
-98 99 118 0
128 55 0
-128 -55 0
129 -57 0
-129 57 0
-127 128 0
-127 129 0
127 -128 -129 0
130 -59 0
-130 59 0
-126 127 0
-126 130 0
126 -127 -130 0
-131 106 0
131 -106 0
-125 126 0
-125 131 0
125 -126 -131 0
97 -98 0
97 -125 0
-97 98 125 0
-134 127 0
134 -127 0
135 59 0
-135 -59 0
-133 134 0
-133 135 0
133 -134 -135 0
138 14 0
-138 -14 0
139 -16 0
-139 16 0
-137 138 0
-137 139 0
137 -138 -139 0
140 -18 0
-140 18 0
-136 137 0
-136 140 0
136 -137 -140 0
-132 133 0
-132 136 0
132 -133 -136 0
96 -97 0
96 -132 0
-96 97 132 0
144 -55 0
-144 55 0
145 -57 0
-145 57 0
-143 144 0
-143 145 0
143 -144 -145 0
146 59 0
-146 -59 0
-142 143 0
-142 146 0
142 -143 -146 0
149 14 0
-149 -14 0
150 16 0
-150 -16 0
-148 149 0
-148 150 0
148 -149 -150 0
151 -18 0
-151 18 0
-147 148 0
-147 151 0
147 -148 -151 0
-141 142 0
-141 147 0
141 -142 -147 0
95 -96 0
95 -141 0
-95 96 141 0
155 55 0
-155 -55 0
156 57 0
-156 -57 0
-154 155 0
-154 156 0
154 -155 -156 0
157 -59 0
-157 59 0
-153 154 0
-153 157 0
153 -154 -157 0
-159 137 0
159 -137 0
160 18 0
-160 -18 0
-158 159 0
-158 160 0
158 -159 -160 0
-152 153 0
-152 158 0
152 -153 -158 0
94 -95 0
94 -152 0
-94 95 152 0
-163 154 0
163 -154 0
164 59 0
-164 -59 0
-162 163 0
-162 164 0
162 -163 -164 0
-165 147 0
165 -147 0
-161 162 0
-161 165 0
161 -162 -165 0
93 -94 0
93 -161 0
-93 94 161 0
-87 88 0
-87 93 0
87 -88 -93 0
-167 88 0
167 -88 0
-176 101 0
176 -101 0
-177 112 0
177 -112 0
-175 176 0
-175 177 0
175 -176 -177 0
-179 112 0
179 -112 0
-180 101 0
180 -101 0
-178 179 0
-178 180 0
178 -179 -180 0
174 -175 0
174 -178 0
-174 175 178 0
-182 112 0
182 -112 0
-183 142 0
183 -142 0
-181 182 0
-181 183 0
181 -182 -183 0
173 -174 0
173 -181 0
-173 174 181 0
-185 126 0
185 -126 0
-186 112 0
186 -112 0
-184 185 0
-184 186 0
184 -185 -186 0
172 -173 0
172 -184 0
-172 173 184 0
-188 133 0
188 -133 0
-189 126 0
189 -126 0
-187 188 0
-187 189 0
187 -188 -189 0
171 -172 0
171 -187 0
-171 172 187 0
-191 142 0
191 -142 0
-192 153 0
192 -153 0
-190 191 0
-190 192 0
190 -191 -192 0
170 -171 0
170 -190 0
-170 171 190 0
-194 153 0
194 -153 0
-195 133 0
195 -133 0
-193 194 0
-193 195 0
193 -194 -195 0
169 -170 0
169 -193 0
-169 170 193 0
-197 162 0
197 -162 0
-198 153 0
198 -153 0
-196 197 0
-196 198 0
196 -197 -198 0
168 -169 0
168 -196 0
-168 169 196 0
-166 167 0
-166 168 0
166 -167 -168 0
86 -87 0
86 -166 0
-86 87 166 0
2 -3 0
2 -86 0
-2 3 86 0
-208 115 0
208 -115 0
-209 112 0
209 -112 0
-207 208 0
-207 209 0
207 -208 -209 0
-211 106 0
211 -106 0
-212 101 0
212 -101 0
-210 211 0
-210 212 0
210 -211 -212 0
206 -207 0
206 -210 0
-206 207 210 0
-214 106 0
214 -106 0
-215 142 0
215 -142 0
-213 214 0
-213 215 0
213 -214 -215 0
205 -206 0
205 -213 0
-205 206 213 0
-217 136 0
217 -136 0
-218 112 0
218 -112 0
-216 217 0
-216 218 0
216 -217 -218 0
204 -205 0
204 -216 0
-204 205 216 0
-220 158 0
220 -158 0
-221 126 0
221 -126 0
-219 220 0
-219 221 0
219 -220 -221 0
203 -204 0
203 -219 0
-203 204 219 0
-223 120 0
223 -120 0
-224 153 0
224 -153 0
-222 223 0
-222 224 0
222 -223 -224 0
202 -203 0
202 -222 0
-202 203 222 0
-226 147 0
226 -147 0
-227 133 0
227 -133 0
-225 226 0
-225 227 0
225 -226 -227 0
201 -202 0
201 -225 0
-201 202 225 0
-230 148 0
230 -148 0
231 18 0
-231 -18 0
-229 230 0
-229 231 0
229 -230 -231 0
-232 153 0
232 -153 0
-228 229 0
-228 232 0
228 -229 -232 0
200 -201 0
200 -228 0
-200 201 228 0
-233 229 0
233 -229 0
-199 200 0
-199 233 0
199 -200 -233 0
-1 2 0
-1 199 0
1 -2 -199 0
